p cnf 103 278
c ind 97 101 88 95 99 91 93 86 100 89 0
c ind 85 87 96 98 79 83 84 92 82 94 0
c ind 80 81 90 1 0
c ret 53 62 63 64 65 66 67 68 69 70 0
c ret 71 54 72 73 74 75 76 77 78 55 0
c ret 56 57 58 59 60 61 0
2 13 -31 0
2 -3 -8 -31 0
-2 31 0
-2 8 -13 0
-2 3 -13 0
3 4 5 6 7 0
-3 -7 0
-3 -6 0
-3 -4 0
-3 -5 0
4 -61 77 -84 96 0
4 61 -77 84 -96 0
4 61 77 84 96 0
4 -61 -77 -84 -96 0
-4 -61 84 0
-4 61 -84 0
-4 77 -96 0
-4 -77 96 0
5 -61 77 -79 89 0
5 61 -77 79 -89 0
5 61 77 79 89 0
5 -61 -77 -79 -89 0
-5 -61 79 0
-5 61 -79 0
-5 77 -89 0
-5 -77 89 0
6 -61 77 -85 98 0
6 61 -77 85 -98 0
6 61 77 85 98 0
6 -61 -77 -85 -98 0
-6 -61 85 0
-6 61 -85 0
-6 77 -98 0
-6 -77 98 0
7 -61 77 -86 100 0
7 61 -77 86 -100 0
7 61 77 86 100 0
7 -61 -77 -86 -100 0
-7 -61 86 0
-7 61 -86 0
-7 77 -100 0
-7 -77 100 0
8 9 10 11 12 0
-8 -12 0
-8 -11 0
-8 -9 0
-8 -10 0
9 -61 77 -83 94 0
9 61 -77 83 -94 0
9 61 77 83 94 0
9 -61 -77 -83 -94 0
-9 -61 83 0
-9 61 -83 0
-9 77 -94 0
-9 -77 94 0
10 -61 77 -80 87 0
10 61 -77 80 -87 0
10 61 77 80 87 0
10 -61 -77 -80 -87 0
-10 -61 80 0
-10 61 -80 0
-10 77 -87 0
-10 -77 87 0
11 -61 77 -81 90 0
11 61 -77 81 -90 0
11 61 77 81 90 0
11 -61 -77 -81 -90 0
-11 -61 81 0
-11 61 -81 0
-11 77 -90 0
-11 -77 90 0
12 -61 77 -82 92 0
12 61 -77 82 -92 0
12 61 77 82 92 0
12 -61 -77 -82 -92 0
-12 -61 82 0
-12 61 -82 0
-12 77 -92 0
-12 -77 92 0
13 -14 -18 -21 -24 0
-13 24 0
-13 14 0
-13 21 0
-13 18 0
14 -16 -17 -90 0
14 -15 -16 -17 0
-14 17 0
-14 16 0
-14 15 90 0
15 -80 91 0
15 87 91 0
-15 -91 0
-15 80 -87 0
16 83 84 85 86 0
-16 -86 0
-16 -85 0
-16 -83 0
-16 -84 0
17 79 80 81 82 0
-17 -82 0
-17 -81 0
-17 -79 0
-17 -80 0
18 19 -92 0
18 -20 94 0
18 19 -20 0
18 -92 94 0
-18 -19 -94 0
-18 20 92 0
19 -82 95 0
19 92 95 0
-19 -95 0
-19 82 -92 0
20 -81 93 0
20 90 93 0
-20 -93 0
-20 81 -90 0
21 22 -23 -96 100 0
21 -22 -23 96 100 0
21 -22 23 96 -100 0
21 22 23 -96 -100 0
-21 -22 -96 0
-21 22 96 0
-21 23 100 0
-21 -23 -100 0
22 -83 97 0
22 94 97 0
-22 -97 0
-22 83 -94 0
23 -85 101 0
23 98 101 0
-23 -101 0
-23 85 -98 0
24 -26 -28 -87 0
24 -25 -26 -28 0
-24 28 0
-24 26 0
-24 25 87 0
25 88 89 0
25 -79 88 0
-25 -88 0
-25 79 -89 0
-19 26 -98 0
26 -27 -94 0
26 -94 -98 0
-19 26 -27 0
-26 27 98 0
19 -26 94 0
27 -84 99 0
27 96 99 0
-27 -99 0
-27 84 -96 0
25 28 -29 30 0
28 -29 30 87 0
-28 29 0
-28 -30 0
-25 -28 -87 0
15 29 98 0
27 29 90 0
15 27 29 0
29 90 98 0
-15 -29 -90 0
-27 -29 -98 0
30 -81 -92 93 0
30 90 -92 93 0
-30 92 0
-30 -93 0
-30 81 -90 0
31 -32 -42 -45 -47 0
-31 47 0
-31 32 0
-31 45 0
-31 42 0
32 -33 -34 -36 -39 0
-32 39 0
-32 33 0
-32 36 0
-32 34 0
33 59 60 61 0
-33 -59 0
-33 -61 0
-33 -60 0
34 -35 53 54 0
-34 35 0
-34 -54 0
-34 -53 0
35 55 56 57 58 0
-35 -58 0
-35 -57 0
-35 -55 0
-35 -56 0
36 -37 -69 0
36 -38 -71 0
36 -69 -71 0
36 -37 -38 0
-36 37 71 0
-36 38 69 0
37 -57 72 0
37 69 72 0
-37 -72 0
-37 57 -69 0
38 -56 70 0
38 67 70 0
-38 -70 0
-38 56 -67 0
39 41 -73 0
39 -40 65 0
39 65 -73 0
39 -40 41 0
-39 -41 -65 0
-39 40 73 0
40 -58 74 0
40 71 74 0
-40 -74 0
-40 58 -71 0
41 -54 66 0
41 62 66 0
-41 -66 0
-41 54 -62 0
42 43 77 0
42 44 75 0
42 43 44 0
42 75 77 0
-42 -43 -75 0
-42 -44 -77 0
43 -59 76 0
43 73 76 0
-43 -76 0
-43 59 -73 0
44 -60 78 0
44 75 78 0
-44 -78 0
-44 60 -75 0
37 45 46 0
45 67 71 0
45 46 71 0
37 45 67 0
-37 -45 -71 0
-45 -46 -67 0
46 -55 68 0
46 65 68 0
-46 -68 0
-46 55 -65 0
47 -48 -51 -52 62 0
47 -48 51 -52 -62 0
-47 52 0
-47 -51 -62 0
-47 48 0
-47 51 62 0
48 -49 50 -77 0
-44 48 -49 50 0
-48 49 0
-48 -50 0
44 -48 77 0
40 49 -65 0
-41 49 73 0
40 -41 49 0
49 -65 73 0
-40 -49 -73 0
41 -49 65 0
50 75 -76 0
50 59 -73 75 0
-50 -75 0
-50 -59 76 0
-50 73 76 0
51 63 64 0
51 -53 63 0
-51 -63 0
-51 53 -64 0
38 52 -67 0
-46 52 69 0
38 -46 52 0
52 -67 69 0
-38 -52 -69 0
46 -52 67 0
1 2 0
-1 -2 0
102 0

